variable t string 1

units lj
boundary p p p
atom_style atomic

lattice fcc 1.0
region r1 block -6 6 -6 6 -6 6
create_box 1 r1
create_atoms 1 box
mass 1 1.0

pair_style lj/cut 2.5
pair_coeff * * 1.0 1.0

velocity all create $t 322 mom yes rot no
reset_timestep	0
timestep 0.001

#### Equilibration ####
fix base all nvt temp 1.2 1.2 0.1
thermo 1000

run 10000
unfix base


fix start all nvt temp 1.2 2.2 10

compute 1 all msd average yes

thermo_style custom temp etotal press density vol c_1[4]
thermo 100

run 200000
unfix start
