variable t string 1

units lj
boundary p p p
atom_style atomic

lattice fcc 1.0
region r1 block -6 6 -6 6 -6 6
create_box 1 r1
create_atoms 1 box
mass 1 1.0

pair_style lj/cut 2.5
pair_coeff * * 1.0 1.0

velocity all create $t 322 mom yes rot no
reset_timestep	0
timestep 0.001

#### Equilibration ####
fix base all nvt temp 1.4 1.4 0.1

thermo_style custom temp etotal press density
thermo 1000

run 10000
unfix base


fix start all nvt temp 1.4 2 10

thermo_style custom temp etotal press density vol
thermo 1000

dump		vel all custom  1000 dump.* id x y z vx vy vz

run 200000
unfix start
