#RDF

units		lj
boundary	p p p
atom_style	atomic

lattice		fcc ${rho}
region		box block 0 6 0 6 0 6
create_box	1 box
create_atoms	1 box
mass		1 1.0

velocity	all create $T 87287 loop geom mom yes rot yes
reset_timestep	0
timestep	0.001
pair_style	lj/cut 2.5
pair_coeff	1 1 1.0 1.0 2.5

neighbor	0.3 bin
neigh_modify	every 20 delay 0 check no
thermo		100

#Equilibration

fix		thermos all nvt temp $T $T 1.0
run		1000
unfix 	thermos

fix 	1 all nve

run 	20000

compute 1 all msd
compute 2 all vacf

thermo_style custom c_1[4] c_2[4] 
thermo 100

run 10000
